Traveling Salesman Problem/TSP_generados/Aleatorio1621103313_9.tsp
NAME: Aleatorio1621103313_9.tsp
COMMENT: Randomly generated scenario
TYPE: TSP
DIMENSION: 9
EDGE_WEIGHT_TYPE: ATT
NODE_COORD_SECTION
1 4.14 46.26
2 19.34 15.7
3 33.78 33.26
4 41.24 21.71
5 10.87 36.44
6 34.42 1.91
7 3.43 27.75
8 41.18 0.67
9 30.67 38.98
