Traveling Salesman Problem/TSP_generados/Aleatorio1621103313_9.opt.tour
NAME: Aleatorio1621103313_9.opt.tour
COMMENT: Optimal solution for Aleatorio1621103313_9 (138.9568388229557)
TYPE: TOUR
DIMENSION: 9
TOUR_SECTION
1 7 2 6 8 4 3 9 5
-1
EOF
